Instance name:    bar-n100-2
Authors:          PDPTW Solver
Date:             2025-11-20
Reference:        LNS with SA/RTR
Solution
Route 1 : 32 42 92 26 76 82 17 33 83 67 45 95 1 11 61 51 4 54 25 75 27 77
Route 2 : 12 13 63 62 19 69 50 31 81 6 56 44 94 22 100 48 98 3 53 46 96 72
Route 3 : 39 89 30 37 29 79 23 87 80 5 55 8 10 58 60 41 91 73 14 64 43 93
Route 4 : 15 65 20 70 28 78 49 99 35 85 24 74
Route 5 : 34 84 40 90 18 68 36 86 9 59 16 47 21 66 71 97 2 52 7 38 88 57
